NumberOfAtoms    75           # Number of atoms
NumberOfSpecies  4           # Number of species

%block ChemicalSpeciesLabel
 1 79 Au
 2 6 C
 3 7 N
 4 5 B
%endblock ChemicalSpeciesLabel

#(3) Lattice, coordinates, k-sampling

LatticeConstant       1.000000000 Ang
%block LatticeVectors
   12.501262800     0.000000000     0.000000000
   -6.250631200    10.826410996     0.000000000
    0.000000000     0.000000000    60.000000000
%endblock LatticeVectors

AtomicCoordinatesFormat Ang
%block AtomicCoordinatesAndAtomicSpecies
    -4.279069535     9.950446686     9.522041915    1    1
     6.972160131     3.454556403     9.522045875    1    2
    10.722570765     1.289285604     9.522047495    1    3
     1.971560713     7.785036583     9.522047675    1    4
     0.721544379     5.620020562     9.522047975    1    5
     9.472429705     3.454542199     9.522048875    1    6
     5.722067764     1.289323811     9.522048935    1    7
     3.221734976     5.619849039     9.522050075    1    8
     0.721470726     9.950437700     9.522050135    1    9
     4.471832143     7.785036616     9.522050315    1   10
     3.221833387     1.289486651     9.522050615    1   11
     4.471944987     3.454697103     9.522050855    1   12
     5.721948714     5.619698498     9.522051095    1   13
     5.721931854     9.950284138     9.522052175    1   14
     0.721542467     1.289424670     9.522052715    1   15
     8.222279094     5.619783334     9.522053375    1   16
     3.221671206     9.950232128     9.522053375    1   17
    -3.028886276     7.785224984     9.522053555    1   18
    -0.528629535     7.785214753     9.522053555    1   19
     1.971637922     3.454655314     9.522053795    1   20
    -1.778768550     5.619991244     9.522054035    1   21
    -1.778821138     9.950458486     9.522054215    1   22
    -0.528539543     3.454807988     9.522054755    1   23
     8.222339558     1.289303230     9.522055895    1   24
     6.972021172     7.784915446     9.522058475    1   25
     7.448118954     2.917444873    31.811376695    3  126
     6.183790936     5.082903770    31.812592919    3  127
     4.940611036     2.929661330    31.812637102    3  128
     6.197753288     3.639348572    31.818897713    4  129
     8.700889491     5.082447751    31.820460607    3  130
     6.199559730     0.750029438    31.820467085    3  131
     3.651731682     5.109300649    31.823787319    3  132
     7.450115217     1.472254032    31.824760354    4  133
     8.700702321     3.638329028    31.824786824    4  134
     7.444974727     5.802874295    31.825348134    4  135
     4.947688318     1.477473239    31.825374324    4  136
     8.700867353     0.747410258    31.826078300    3  137
     9.953812107     2.917565079    31.826098932    3  138
     4.939270048     5.811447026    31.826820901    4  139
     3.687410172     3.643180862    31.826878999    4  140
     7.449202587     7.245951658    31.827108473    3  141
     3.700062021     0.752265308    31.827201118    3  142
     4.949348211     7.246510506    31.827772304    3  143
     2.449655428     2.916918883    31.827871987    3  144
     9.951168176     1.472326233    31.833249290    4  145
    11.201783067     0.750275836    31.834128720    3  146
     6.202561154     7.970104858    31.834404576    4  147
     2.449598695     1.469814062    31.834459436    4  148
    -0.047256924    10.129067270    31.834527690    4  149
    -2.545001142     5.802833728    31.834532848    4  150
     6.198688139     9.411670237    31.834927900    3  151
     1.199242104     0.752377102    31.834970204    3  152
    -2.549528835     7.245803747    31.835011668    3  153
    -1.299160384     9.411512453    31.835055852    3  154
    -1.283522447     5.082941197    31.835215272    3  155
     1.206934153     9.396550028    31.835223389    3  156
     3.692850821     9.396749700    31.835329429    3  157
    -0.040744612     2.929969038    31.835350501    3  158
    -3.800936129     9.412102547    31.835443946    3  159
     2.449977994    10.130635714    31.835980745    4  160
    -1.297746673     3.639393026    31.835996699    4  161
    -3.801010307     7.968685732    31.836173633    4  162
    -2.550946144    10.133867419    31.836202662    4  163
     2.449692829     7.191210379    31.836795079    3  164
     1.247732689     5.109348015    31.836834025    3  165
     2.449800590     5.803241039    31.837093767    2  166
     4.946875415    10.128936985    31.837745723    4  167
    -0.047833917     1.477863520    31.837762117    4  168
    -5.051090036    10.133873796    31.837844166    4  169
     3.701549004     7.954672502    31.837911780    4  170
     1.212471950     3.643478188    31.837959882    4  171
    -0.049935148     7.246470080    31.839160432    3  172
    -1.303374224     7.970131166    31.839174747    4  173
     1.197910265     7.954610943    31.840747917    4  174
    -0.039291449     5.811718693    31.840777385    4  175
%endblock AtomicCoordinatesAndAtomicSpecies
